
Gurobi 7.0.2 (win64) logging started 06/24/20 00:56:03

Read LP format model from file C:\George\Professor\Pesquisa\Orientacoes em Pos-graduacao\2019 MSC PPGCC Guilherme Figueroa\Fanjuls Solver\Results\I_100_10_S_1-124_5_MTZ_KB.lp
Reading time = 0.52 seconds
: 12220 rows, 102101 columns, 426010 nonzeros
Optimize a model with 12220 rows, 102101 columns and 426010 nonzeros
Variable types: 1101 continuous, 101000 integer (101000 binary)
Coefficient statistics:
  Matrix range     [1e+00, 1e+02]
  Objective range  [1e+00, 1e+00]
  Bounds range     [1e+00, 1e+00]
  RHS range        [1e+00, 1e+02]
Presolve time: 0.87s
Presolved: 12220 rows, 102101 columns, 426010 nonzeros
Variable types: 100 continuous, 102001 integer (102000 binary)
Found heuristic solution: objective 11628.000000
Found heuristic solution: objective 11576.000000

Root simplex log...

Iteration    Objective       Primal Inf.    Dual Inf.      Time
    9986    8.5389880e-04   6.732593e+03   0.000000e+00      5s
   19252    1.8272862e+02   8.475134e+00   0.000000e+00     10s
   19362    1.8274039e+02   0.000000e+00   0.000000e+00     10s

Root relaxation: objective 1.827404e+02, 19362 iterations, 8.89 seconds

    Nodes    |    Current Node    |     Objective Bounds      |     Work
 Expl Unexpl |  Obj  Depth IntInf | Incumbent    BestBd   Gap | It/Node Time

     0     0  182.74039    0  383 11576.0000  182.74039  98.4%     -   10s
H    0     0                     313.0000000  182.74039  41.6%     -   30s
H    0     0                     247.0000000  182.74039  26.0%     -   44s
     0     0  183.23811    0  430  247.00000  183.23811  25.8%     -   62s
     0     0  183.25586    0  434  247.00000  183.25586  25.8%     -   63s
     0     0  184.60946    0  437  247.00000  184.60946  25.3%     -   81s
     0     0  184.64517    0  438  247.00000  184.64517  25.2%     -   81s
     0     0  184.96368    0  452  247.00000  184.96368  25.1%     -   88s
     0     0  184.96368    0  452  247.00000  184.96368  25.1%     -   88s
     0     0  185.02659    0  437  247.00000  185.02659  25.1%     -   94s
     0     0  185.02659    0  437  247.00000  185.02659  25.1%     -   94s
     0     0  185.02659    0  437  247.00000  185.02659  25.1%     -   99s
     0     0  185.04620    0  440  247.00000  185.04620  25.1%     -   99s
     0     0  185.04620    0  440  247.00000  185.04620  25.1%     -  107s
     0     0  185.04620    0  440  247.00000  185.04620  25.1%     -  114s
     0     0  186.00000    0  332  247.00000  186.00000  24.7%     -  293s
     0     0  186.00000    0  332  247.00000  186.00000  24.7%     -  315s
     0     2  186.00000    0  332  247.00000  186.00000  24.7%     -  384s
     1     3  186.00000    1  430  247.00000  186.00000  24.7%  4373  404s
     2     4  186.00000    1  414  247.00000  186.00000  24.7%  2467  412s
     3     5  186.00000    2  460  247.00000  186.00000  24.7%  1818  420s
     4     6  186.00000    2  425  247.00000  186.00000  24.7%  1596  428s
     5     7  186.00000    3  439  247.00000  186.00000  24.7%  1306  430s
     6     7  186.18777    3  386  247.00000  186.00000  24.7%  1216  436s
     7     8  187.00000    4  439  247.00000  186.00000  24.7%  1466  453s
     8     9  187.00000    5  420  247.00000  186.00000  24.7%  1354  461s
     9     9  187.24951    6  378  247.00000  186.00000  24.7%  1338  470s
    10    10  187.00000    6  447  247.00000  186.00000  24.7%  1259  476s
    11    11  187.00000    7  441  247.00000  186.00000  24.7%  1380  486s
    12    12  187.00000    8  436  247.00000  186.00000  24.7%  1356  490s
    15    13  187.53340   10  302  247.00000  186.00000  24.7%  1210  497s
    16    14  188.00000   11  403  247.00000  186.00000  24.7%  1327  512s
    18    16  188.00000   13  429  247.00000  186.00000  24.7%  1234  522s
    19    17  188.00000   14  436  247.00000  186.00000  24.7%  1181  525s
    20    18  188.00000   15  426  247.00000  186.00000  24.7%  1137  531s
    21    19  188.00000   16  412  247.00000  186.00000  24.7%  1098  535s
    22    20  188.00000   16  421  247.00000  186.00000  24.7%  1100  540s
    24    22  188.00000   18  388  247.00000  186.00000  24.7%  1058  546s
    26    24  188.00000   19  442  247.00000  186.00000  24.7%  1001  555s
    27    25  188.00000   20  392  247.00000  186.00000  24.7%   992  581s
    29    26  188.05339   22  252  247.00000  186.00000  24.7%   962  586s
    31    27  189.00000   23  376  247.00000  186.00000  24.7%   985  597s
    32    28  189.00000   24  381  247.00000  186.00000  24.7%   960  600s
    33    28  189.71130   24  343  247.00000  186.00000  24.7%   977  605s
    36    31  189.00000   26  369  247.00000  186.00000  24.7%   928  612s
    38    33  189.00000   27  417  247.00000  186.00000  24.7%   923  616s
    40    35  189.00000   29  405  247.00000  186.00000  24.7%   915  621s
    43    35  190.49025   30  241  247.00000  186.00000  24.7%   929  629s
    44    36  190.00000   31  388  247.00000  186.00000  24.7%  1004  640s
    47    39  190.00000   34  389  247.00000  186.00000  24.7%   960  646s
    49    40  190.00000   35  337  247.00000  186.00000  24.7%   946  650s
    52    41  191.00000   37  359  247.00000  186.00000  24.7%   985  662s
    54    43  191.00000   39  376  247.00000  186.00000  24.7%   960  680s
    55    44  191.00000   40  383  247.00000  186.00000  24.7%   946  685s
    57    46  191.00000   42  359  247.00000  186.00000  24.7%   927  694s
    58    47  191.00000   42  365  247.00000  186.00000  24.7%   934  698s
    59    48  191.00000   43  374  247.00000  186.00000  24.7%   929  701s
    61    49  191.00000   44  370  247.00000  186.00000  24.7%   927  706s
    63    49  191.18072   45  275  247.00000  186.00000  24.7%   917  711s
    64    50  192.00000   46  329  247.00000  186.00000  24.7%   937  715s
    66    52  192.00000   48  357  247.00000  186.00000  24.7%   925  721s
    70    56  192.00000   52  360  247.00000  186.00000  24.7%   896  726s
    71    56  196.61258   52  234  247.00000  186.00000  24.7%   914  731s
    75    58  193.00000   55  265  247.00000  186.00000  24.7%   908  742s
    76    59  193.00000   56  324  247.00000  186.00000  24.7%   911  747s
    78    60  193.07429   58  196  247.00000  186.00000  24.7%   902  751s
    79    60  197.88305   58  261  247.00000  186.00000  24.7%   908  756s
    80    61  194.00000   59  311  247.00000  186.00000  24.7%   935  763s
    81    62  194.00000   60  315  247.00000  186.00000  24.7%   933  770s
    84    65  194.00000   62  312  247.00000  186.00000  24.7%   904  775s
    85    66  194.00000   63  338  247.00000  186.00000  24.7%   907  780s
    88    68  198.46745   65  240  247.00000  186.00000  24.7%   908  787s
    90    70  194.00000   67  342  247.00000  186.00000  24.7%   901  790s
    93    71  195.00000   69  330  247.00000  186.00000  24.7%   917  800s
    96    73  195.00000   71  349  247.00000  186.00000  24.7%   906  806s
    98    75  195.00000   73  341  247.00000  186.00000  24.7%   897  810s
   103    79  195.03287   78  223  247.00000  186.00000  24.7%   871  815s
   105    80  196.00000   79  298  247.00000  186.00000  24.7%   881  820s
   107    81  198.54376   80  209  247.00000  186.00000  24.7%   880  828s
   108    81  196.47201   81  249  247.00000  186.00000  24.7%   879  871s
   111    84  196.00000   83  295  247.00000  186.00000  24.7%   864  875s
   113    85  240.40000   84  363  247.00000  186.00000  24.7%   874  894s
   114    85  196.12452   85  227  247.00000  186.00000  24.7%   870  895s
   117    87  197.00000   87  274  247.00000  186.00000  24.7%   866  900s
   120    88  197.27876   89  166  247.00000  186.00000  24.7%   862  906s
   122    89  198.00000   90  308  247.00000  186.00000  24.7%   884  913s
   124    91  198.00000   92  206  247.00000  186.00000  24.7%   876  915s
   127    92  199.00000   94  296  247.00000  186.00000  24.7%   880  923s
   129    94  224.00000   95  311  247.00000  186.00000  24.7%   876  931s
   134    97  201.00000   99  223  247.00000  186.00000  24.7%   878  939s
   135    98  201.00000  100  304  247.00000  186.00000  24.7%   873  947s
   137   100  201.00000  102  296  247.00000  186.00000  24.7%   865  951s
   141   103  201.00000  104  276  247.00000  186.00000  24.7%   855  955s
   146   106  202.00000  108  266  247.00000  186.00000  24.7%   848  961s
   149   109  202.00000  111  286  247.00000  186.00000  24.7%   838  965s
   155   113  203.00000  116  236  247.00000  186.00000  24.7%   825  972s
   158   116  203.00000  119  258  247.00000  186.00000  24.7%   817  976s
   160   117  208.50216  120  175  247.00000  186.00000  24.7%   816  981s
   162   117  204.09936  121  161  247.00000  186.00000  24.7%   810 1004s
   163   118  204.00000  122  224  247.00000  186.00000  24.7%   814 1006s
   166   121  204.00000  125  227  247.00000  186.00000  24.7%   806 1010s
   167   121  211.82609  126  249  247.00000  186.00000  24.7%   813 1015s
   171   124  212.00000  129  281  247.00000  186.00000  24.7%   802 1020s
   176   128  212.00000  134  268  247.00000  186.00000  24.7%   786 1026s
   181   131  212.47584  138  157  247.00000  186.00000  24.7%   776 1031s
   190   136  214.00000  146  209  247.00000  186.00000  24.7%   753 1036s
   196   139  214.03088  150  151  247.00000  186.00000  24.7%   739 1040s
   201   142  233.00000  154  225  247.00000  186.00000  24.7%   729 1045s
   209   146  217.00000  161  221  247.00000  186.00000  24.7%   711 1050s
   215   151  218.00000  166  220  247.00000  186.00000  24.7%   709 1055s
   232   160  245.28000  180  207  247.00000  186.00000  24.7%   670 1061s
   250   166  221.00000  196  182  247.00000  186.00000  24.7%   628 1065s
   275   175  223.01938  217  139  247.00000  186.00000  24.7%   581 1070s
   298   181  227.00000  235  169  247.00000  186.00000  24.7%   545 1075s
   325   195  229.09118  259  118  247.00000  186.00000  24.7%   509 1098s
   337   198  230.00000  270  157  247.00000  186.00000  24.7%   494 1100s
   352   202  230.49610  284  107  247.00000  186.00000  24.7%   474 1106s
H  379   199                     241.0000000  186.00000  22.8%   443 1108s
   385   202  233.00000  316  126  241.00000  186.00000  22.8%   436 1112s
   411   208  186.00000    2  433  241.00000  186.00000  22.8%   412 1116s
   412   209  186.00000    3  445  241.00000  186.00000  22.8%   418 1127s
   414   210  187.00000    5  469  241.00000  186.00000  22.8%   431 1151s
   415   210  187.06828    6  419  241.00000  186.00000  22.8%   433 1155s
   416   211  188.00000    7  491  241.00000  186.00000  22.8%   448 1180s
   419   214  188.00000   10  465  241.00000  186.00000  22.8%   446 1186s
   421   216  188.00000   12  477  241.00000  186.00000  22.8%   446 1190s
   424   218  188.38708   15  382  241.00000  186.00000  22.8%   446 1197s
   426   219  189.00000   16  429  241.00000  186.00000  22.8%   453 1209s
   429   222  189.00000   19  411  241.00000  186.00000  22.8%   450 1211s
   431   222  189.30386   20  356  241.00000  186.00000  22.8%   452 1216s
   432   223  190.00000   21  448  241.00000  186.00000  22.8%   461 1231s
   433   224  190.00000   22  471  241.00000  186.00000  22.8%   461 1249s
   434   225  190.00000   23  406  241.00000  186.00000  22.8%   462 1253s
   435   225  190.20517   24  336  241.00000  186.00000  22.8%   462 1255s
   437   226  191.00000   25  401  241.00000  186.00000  22.8%   472 1274s
   438   227  191.00000   26  415  241.00000  186.00000  22.8%   472 1275s
   440   229  191.00000   28  456  241.00000  186.00000  22.8%   471 1301s
   443   232  191.00000   31  430  241.00000  186.00000  22.8%   470 1305s
   445   233  191.05703   32  262  241.00000  186.00000  22.8%   472 1310s
   447   234  192.00000   34  405  241.00000  186.00000  22.8%   483 1328s
   449   236  192.00000   36  393  241.00000  186.00000  22.8%   483 1331s
   450   237  192.00000   37  421  241.00000  186.00000  22.8%   486 1336s
   452   237  192.54787   38  244  241.00000  186.00000  22.8%   487 1340s
   453   238  193.00000   39  377  241.00000  186.00000  22.8%   491 1347s
   454   238  194.95895   40  333  241.00000  186.00000  22.8%   492 1350s
   456   240  193.00000   41  388  241.00000  186.00000  22.8%   494 1356s
   458   241  193.00000   42  379  241.00000  186.00000  22.8%   497 1362s
   460   241  193.36707   43  286  241.00000  186.00000  22.8%   498 1389s
   461   242  194.00000   44  381  241.00000  186.00000  22.8%   504 1399s
   462   242  194.02353   45  273  241.00000  186.00000  22.8%   505 1400s
   465   245  194.00000   47  382  241.00000  186.00000  22.8%   502 1406s
   468   248  194.00000   50  392  241.00000  186.00000  22.8%   501 1410s
   471   250  194.16896   52  308  241.00000  186.00000  22.8%   501 1415s
   476   253  194.28438   55  253  241.00000  186.00000  22.8%   501 1421s
   478   254  195.00000   56  397  241.00000  186.00000  22.8%   506 1432s
   480   256  195.00000   58  377  241.00000  186.00000  22.8%   506 1435s
   483   257  196.78840   60  225  241.00000  186.00000  22.8%   507 1440s
   484   258  196.00000   61  367  241.00000  186.00000  22.8%   512 1446s
   485   259  196.00000   62  402  241.00000  186.00000  22.8%   511 1450s
   487   261  196.00000   63  371  241.00000  186.00000  22.8%   513 1460s
   489   262  197.00499   64  202  241.00000  186.00000  22.8%   515 1465s
   493   264  196.54455   67  194  241.00000  186.00000  22.8%   514 1470s
   495   266  197.00000   69  297  241.00000  186.00000  22.8%   517 1476s
   497   267  197.00000   70  352  241.00000  186.00000  22.8%   518 1480s
   500   269  199.42263   73  274  241.00000  186.00000  22.8%   521 1488s
   503   272  197.00000   75  334  241.00000  186.00000  22.8%   519 1490s
   506   273  197.52755   77  220  241.00000  186.00000  22.8%   519 1495s
   507   274  198.00000   78  346  241.00000  186.00000  22.8%   525 1504s
   508   275  198.00000   79  335  241.00000  186.00000  22.8%   524 1506s
   509   276  198.00000   80  336  241.00000  186.00000  22.8%   526 1512s
   511   277  188.00000   13  332  241.00000  186.00000  22.8%   524 1764s

Explored 512 nodes (335366 simplex iterations) in 1801.68 seconds
Thread count was 1 (of 12 available processors)

Solution count 5: 241 247 313 ... 11628
Pool objective bound 186

Time limit reached
Best objective 2.410000000000e+02, best bound 1.860000000000e+02, gap 22.8216%
